experiments/benchmarks/random/5_4_4.in
14 7
1 -8 8 0 5 -2 10
1 -5 0 0 0 0 -9
1 0 0 3 -2 0 -4
1 0 -3 1 5 -3 -8
1 1 0 0 0 0 8
1 0 1 0 0 0 8
1 0 0 1 0 0 8
1 0 0 0 1 0 8
1 0 0 0 0 1 8
1 -1 0 0 0 0 7
1 0 -1 0 0 0 7
1 0 0 -1 0 0 7
1 0 0 0 -1 0 7
1 0 0 0 0 -1 7
